Data path: /scratch/opt/lxu/CFLG/benchmarks/tree_A
Instance: treeA.150.15
Result path: /scratch/opt/lxu/CFLG/results/tree_A
Solver: Gurobi
Time limit: 7200
Formulation: LEVFP
Cover: Small
julia --project=. src/main.jl /scratch/opt/lxu/CFLG/benchmarks/tree_A treeA.150.15 /scratch/opt/lxu/CFLG/results/tree_A Gurobi 7200 LEVFP Small
The latest version of Julia in the `release` channel is 1.11.6+0.x64.linux.gnu. You currently have `1.11.4+0.x64.linux.gnu` installed. Run:

  juliaup update

in your terminal shell to install Julia 1.11.6+0.x64.linux.gnu and update the `release` channel to that version.
/scratch/opt/lxu/CFLG/benchmarks/tree_A Gurobi 7200.0 /scratch/opt/lxu/CFLG/results/tree_A treeA.150.15 LEVFP Small
/scratch/opt/lxu/CFLG/benchmarks/tree_A/treeA.150.15

 read graph
data loaded


after absorb:99 150

max_piece:22
problem_graph/original graph: node: 99/150 edge: 113/164 dlt: 0.3730876801187808 break_avg_len: 2.1658895412205315 break_max_len: 7.637562440320757elapsed CPU time: 0.029309 seconds
Set parameter TokenServer to value "solice01.zib.de"
Set parameter Threads to value 1
Set parameter OutputFlag to value 1
Set parameter MIPGap to value 0.0001
Set parameter TimeLimit to value 7199.970691

 model loaded

Gurobi Optimizer version 12.0.1 build v12.0.1rc0 (linux64 - "Debian GNU/Linux 12 (bookworm)")

CPU model: Intel(R) Xeon(R) Gold 5222 CPU @ 3.80GHz, instruction set [SSE2|AVX|AVX2|AVX512]
Thread count: 8 physical cores, 16 logical processors, using up to 1 threads

Non-default parameters:
TimeLimit  7199.970691
Threads  1

Optimize a model with 1964 rows, 1074 columns and 4394 nonzeros
Model fingerprint: 0xb5793466
Variable types: 212 continuous, 862 integer (862 binary)
Coefficient statistics:
  Matrix range     [2e-06, 1e+00]
  Objective range  [1e+00, 1e+00]
  Bounds range     [4e-01, 7e-01]
  RHS range        [3e-03, 4e+00]
Found heuristic solution: objective 418.0000000
Presolve removed 1338 rows and 606 columns
Presolve time: 0.02s
Presolved: 626 rows, 468 columns, 1865 nonzeros
Variable types: 168 continuous, 300 integer (300 binary)
Found heuristic solution: objective 392.0000000

Root relaxation: objective 2.879509e+02, 549 iterations, 0.00 seconds (0.00 work units)

    Nodes    |    Current Node    |     Objective Bounds      |     Work
 Expl Unexpl |  Obj  Depth IntInf | Incumbent    BestBd   Gap | It/Node Time

     0     0  287.95094    0  182  392.00000  287.95094  26.5%     -    0s
H    0     0                     335.0000000  287.95094  14.0%     -    0s
H    0     0                     334.0000000  287.95094  13.8%     -    0s
     0     0  307.01042    0  158  334.00000  307.01042  8.08%     -    0s
H    0     0                     329.0000000  307.05890  6.67%     -    0s
     0     0  307.67810    0  163  329.00000  307.67810  6.48%     -    0s
     0     0  307.68746    0  161  329.00000  307.68746  6.48%     -    0s
     0     0  310.34235    0  162  329.00000  310.34235  5.67%     -    0s
     0     0  310.92096    0  154  329.00000  310.92096  5.50%     -    0s
     0     0  310.92496    0  157  329.00000  310.92496  5.49%     -    0s
     0     0  313.48046    0  134  329.00000  313.48046  4.72%     -    0s
H    0     0                     328.0000000  313.48300  4.43%     -    0s
     0     0  313.66130    0  151  328.00000  313.66130  4.37%     -    0s
     0     0  313.66946    0  145  328.00000  313.66946  4.37%     -    0s
     0     0  314.59546    0  129  328.00000  314.59546  4.09%     -    0s
     0     0  314.63843    0  128  328.00000  314.63843  4.07%     -    0s
     0     0  314.66517    0  128  328.00000  314.66517  4.07%     -    0s
     0     0  314.67703    0  133  328.00000  314.67703  4.06%     -    0s
     0     0  314.67703    0  133  328.00000  314.67703  4.06%     -    0s
     0     0  314.70066    0   99  328.00000  314.70066  4.05%     -    0s
H    0     0                     325.0000000  314.71697  3.16%     -    0s
     0     2  314.71697    0   96  325.00000  314.71697  3.16%     -    0s
H   27    27                     324.0000000  314.78763  2.84%  11.5    0s
H   78    78                     323.0000000  314.78763  2.54%   8.0    0s
H   81    73                     322.0000000  314.78763  2.24%   7.9    0s
  6239  3100  319.33357   22  106  322.00000  319.22790  0.86%  15.7    5s
 10203  4729  320.11964   30   99  322.00000  319.57989  0.75%  15.8   10s
 11815  5032  321.00000   48   17  322.00000  320.00000  0.62%  17.1   15s
 21124  4967  321.00000   45   48  322.00000  321.00000  0.31%  16.1   20s
 27890  3693     cutoff   47       322.00000  321.00000  0.31%  17.1   25s
 35310  3626     cutoff   41       322.00000  321.00000  0.31%  17.9   30s
 42259  3784     cutoff   52       322.00000  321.00000  0.31%  18.6   35s
 49194  3828     cutoff   53       322.00000  321.00000  0.31%  19.1   40s
 55814  3773  321.00000   48   10  322.00000  321.00000  0.31%  19.5   45s
 62770  3641     cutoff   47       322.00000  321.00000  0.31%  19.8   50s
 69880  3565  321.00000   48   22  322.00000  321.00000  0.31%  20.1   55s
 76825  3656  321.00000   41   22  322.00000  321.00000  0.31%  20.0   60s
 83410  3660  321.00000   41   10  322.00000  321.00000  0.31%  20.2   65s
 90127  3541     cutoff   47       322.00000  321.00000  0.31%  20.3   70s
 96862  3491  321.00000   42   18  322.00000  321.00000  0.31%  20.4   75s
 103810  3363  321.00000   54   11  322.00000  321.00000  0.31%  20.5   80s
 110663  3332  321.00000   52   10  322.00000  321.00000  0.31%  20.6   85s
 118216  3197     cutoff   55       322.00000  321.00000  0.31%  20.5   90s
 124413  3482     cutoff   50       322.00000  321.00000  0.31%  20.7   95s
 130366  3651     cutoff   56       322.00000  321.00000  0.31%  20.9  100s
 136486  3812     cutoff   54       322.00000  321.00000  0.31%  21.1  105s
 142209  3502  321.00000   47   44  322.00000  321.00000  0.31%  21.3  110s
 148254  3544     cutoff   56       322.00000  321.00000  0.31%  21.4  115s
 155276  3554  321.00000   53   21  322.00000  321.00000  0.31%  21.3  120s
 161971  3519  321.00000   49   19  322.00000  321.00000  0.31%  21.3  125s
 167913  3476     cutoff   47       322.00000  321.00000  0.31%  21.4  130s
 174385  3463  321.00000   54   13  322.00000  321.00000  0.31%  21.4  135s
 180460  3424     cutoff   50       322.00000  321.00000  0.31%  21.4  140s
 187235  3381     cutoff   60       322.00000  321.00000  0.31%  21.3  145s
 194204  3345  321.00000   54   18  322.00000  321.00000  0.31%  21.3  150s
 200605  3257  321.00000   45   20  322.00000  321.00000  0.31%  21.2  155s
 206997  3269     cutoff   49       322.00000  321.00000  0.31%  21.2  160s
 213618  3247  321.00000   49    8  322.00000  321.00000  0.31%  21.2  165s
 220100  3252  321.00000   55   21  322.00000  321.00000  0.31%  21.2  170s
 226411  3230     cutoff   42       322.00000  321.00000  0.31%  21.2  175s
 232475  3264     cutoff   54       322.00000  321.00000  0.31%  21.3  180s
 238513  3189  321.00000   50    6  322.00000  321.00000  0.31%  21.3  185s
 245047  3038  321.00000   48   18  322.00000  321.00000  0.31%  21.3  190s
 251474  3047  321.00000   47    5  322.00000  321.00000  0.31%  21.3  195s
 257769  2980     cutoff   53       322.00000  321.00000  0.31%  21.3  200s
 263947  2944  321.00000   54   20  322.00000  321.00000  0.31%  21.3  205s
 270179  2795     cutoff   53       322.00000  321.00000  0.31%  21.3  210s
 276157  2754     cutoff   44       322.00000  321.00000  0.31%  21.3  215s
 282896  2700     cutoff   48       322.00000  321.00000  0.31%  21.3  220s
 289586  2681     cutoff   52       322.00000  321.00000  0.31%  21.3  225s
 295849  2678     cutoff   45       322.00000  321.00000  0.31%  21.3  230s
 301345  2669  321.00000   52   11  322.00000  321.00000  0.31%  21.3  235s
 307903  2636  321.00000   48   16  322.00000  321.00000  0.31%  21.3  240s
 314585  2676  321.00000   56   34  322.00000  321.00000  0.31%  21.2  245s
 320648  2644  321.00000   42   18  322.00000  321.00000  0.31%  21.3  250s
 326801  2661  321.00000   59   34  322.00000  321.00000  0.31%  21.3  255s
 333123  2621  321.00000   53   40  322.00000  321.00000  0.31%  21.3  260s
 339434  2574  321.00000   51   22  322.00000  321.00000  0.31%  21.3  265s
 345675  2407  321.00000   46   25  322.00000  321.00000  0.31%  21.3  270s
 351519  2378  321.00000   53   19  322.00000  321.00000  0.31%  21.3  275s
 357717  2307 infeasible   50       322.00000  321.00000  0.31%  21.3  280s
 364033  2248  321.00000   55   16  322.00000  321.00000  0.31%  21.3  285s
 370366  2257  321.00000   49   24  322.00000  321.00000  0.31%  21.3  290s
 376643  2224     cutoff   54       322.00000  321.00000  0.31%  21.3  295s
 382541  2217     cutoff   50       322.00000  321.00000  0.31%  21.3  300s
 388391  2201  321.00000   47   13  322.00000  321.00000  0.31%  21.3  305s
 394841  2165  321.00000   40   10  322.00000  321.00000  0.31%  21.3  310s
 400773  2102  321.00000   49   36  322.00000  321.00000  0.31%  21.3  315s
 407329  2024  321.00000   52   21  322.00000  321.00000  0.31%  21.3  320s
 412274  1972     cutoff   49       322.00000  321.00000  0.31%  21.4  325s
 418261  1928  321.00000   48   14  322.00000  321.00000  0.31%  21.4  330s
 424064  1901  321.00000   53   10  322.00000  321.00000  0.31%  21.4  335s
 429811  1822  321.00000   51   12  322.00000  321.00000  0.31%  21.4  340s
 436157  1764     cutoff   48       322.00000  321.00000  0.31%  21.4  345s
 442020  1780     cutoff   53       322.00000  321.00000  0.31%  21.4  350s
 447481  1768 infeasible   53       322.00000  321.00000  0.31%  21.5  355s
 453913  1762  321.00000   52   11  322.00000  321.00000  0.31%  21.5  360s
 460307  1699     cutoff   45       322.00000  321.00000  0.31%  21.4  365s
 465785  1658     cutoff   51       322.00000  321.00000  0.31%  21.4  370s
 470998  1616  321.00000   43   31  322.00000  321.00000  0.31%  21.4  375s
 476654  1514  321.00000   45   26  322.00000  321.00000  0.31%  21.5  380s
 482547  1453  321.00000   39   38  322.00000  321.00000  0.31%  21.5  385s
 489105  1409     cutoff   48       322.00000  321.00000  0.31%  21.5  390s
 495604  1325  321.00000   49    4  322.00000  321.00000  0.31%  21.4  395s
 501690  1299  321.00000   52   30  322.00000  321.00000  0.31%  21.4  400s
 507590  1289     cutoff   51       322.00000  321.00000  0.31%  21.4  405s
 513950  1214  321.00000   44   12  322.00000  321.00000  0.31%  21.4  410s
 520226  1146     cutoff   59       322.00000  321.00000  0.31%  21.4  415s
 526218  1056  321.00000   49   16  322.00000  321.00000  0.31%  21.4  420s
 532119   977     cutoff   61       322.00000  321.00000  0.31%  21.4  425s
 538243   941     cutoff   56       322.00000  321.00000  0.31%  21.3  430s
 544752   946  321.00000   50   16  322.00000  321.00000  0.31%  21.3  435s
 550177   947  321.00000   48   28  322.00000  321.00000  0.31%  21.4  440s
 556164   883  321.00000   55   14  322.00000  321.00000  0.31%  21.4  445s
 562385   826     cutoff   40       322.00000  321.00000  0.31%  21.4  450s
 568689   816     cutoff   50       322.00000  321.00000  0.31%  21.3  455s
 575016   743  321.00000   51   17  322.00000  321.00000  0.31%  21.3  460s
 580045   693     cutoff   52       322.00000  321.00000  0.31%  21.3  465s
 586320   740     cutoff   57       322.00000  321.00000  0.31%  21.3  470s
 592860   695  321.00000   50   10  322.00000  321.00000  0.31%  21.2  475s
 599122   632     cutoff   44       322.00000  321.00000  0.31%  21.2  480s
 605944   629  321.00000   44   31  322.00000  321.00000  0.31%  21.2  485s
 611061   610  321.00000   49   29  322.00000  321.00000  0.31%  21.2  490s
 617233   561     cutoff   56       322.00000  321.00000  0.31%  21.1  495s
 623653   495     cutoff   64       322.00000  321.00000  0.31%  21.1  500s
 630121   443  321.00000   47   23  322.00000  321.00000  0.31%  21.1  505s
 636398   414     cutoff   59       322.00000  321.00000  0.31%  21.1  510s
 642476   341     cutoff   47       322.00000  321.00000  0.31%  21.1  515s
 649083   313     cutoff   58       322.00000  321.00000  0.31%  21.0  520s
 656241   315  321.00000   47   10  322.00000  321.00000  0.31%  21.0  525s
 662410   308     cutoff   50       322.00000  321.00000  0.31%  21.0  530s
 669077   282     cutoff   56       322.00000  321.00000  0.31%  20.9  535s
 674665   230  321.00000   44   29  322.00000  321.00000  0.31%  20.9  540s
 681256   168  321.00000   46   14  322.00000  321.00000  0.31%  20.9  545s
 687447   156  321.00000   56   16  322.00000  321.00000  0.31%  20.9  550s
 693587   119     cutoff   47       322.00000  321.00000  0.31%  20.9  555s
 700059   183  321.00000   56   22  322.00000  321.00000  0.31%  20.9  560s
 706306    97  321.00000   45   18  322.00000  321.00000  0.31%  20.9  565s
 712390   106  321.00000   57   14  322.00000  321.00000  0.31%  20.9  570s

Cutting planes:
  Learned: 30
  Gomory: 24
  Cover: 191
  Implied bound: 10
  Clique: 9
  MIR: 137
  Mixing: 8
  StrongCG: 3
  Flow cover: 505
  GUB cover: 10
  Inf proof: 3
  Zero half: 42
  RLT: 12
  Relax-and-lift: 5

Explored 715197 nodes (14934232 simplex iterations) in 572.34 seconds (426.18 work units)
Thread count was 1 (of 16 available processors)

Solution count 10: 322 322 323 ... 392

Optimal solution found (tolerance 1.00e-04)
Best objective 3.220000000000e+02, best bound 3.220000000000e+02, gap 0.0000%

User-callback calls 1613064, time in user-callback 1.14 sec
Stat(MathOptInterface.OPTIMAL, 322.0, 322.0, 0.0, 0.0, 0.029309, 572.3438880443573, 715197, Main.CFLG.LEVFP, "", #undef)
